(define-fun-rec
  u4
  ((x Int) (y Int)) Int (ite (<= x 0) y (* (u4 (- x 1) y) x)))
(define-fun
  v4
  ((x Int)) Int (u4 x 1))
(define-fun-rec
  u3
  ((x Int) (y Int)) Int (ite (<= x 0) y (* (u3 (- x 1) y) x)))
(define-fun
  v3
  ((x Int) (y Int)) Int (u3 y 1))
(define-fun-rec
  u1
  ((x Int) (y Int)) Int (ite (<= x 0) y (* (u1 (- x 1) y) x)))
(define-fun
  v1
  ((x Int) (y Int)) Int (u1 y x))
(define-fun
  j2
  ((x Int)) Int (mod x 2))
(define-fun
  j0
  ((x Int)) Int x)
(define-fun
  h2
  ((x Int)) Int (div x 2))
(define-fun
  h1
  ((x Int)) Int x)
(define-fun
  h0
  ((x Int)) Int x)
(define-fun
  g4
  ((x Int)) Int x)
(define-fun
  g3
  ((x Int) (y Int)) Int y)
(define-fun
  g2
  ((x Int) (y Int)) Int (+ 2 y))
(define-fun
  g1
  ((x Int) (y Int)) Int y)
(define-fun
  g0
  ((x Int) (y Int)) Int (- y 2))
(define-funs-rec
  ((v0
    ((x Int) (y Int) (z Int)) Int)
   (u0
    ((x Int) (y Int) (z Int)) Int))
  ((ite (<= x 0) z (g0 (u0 (- x 1) y z) (v0 (- x 1) y z)))
   (ite (<= x 0) y (v1 (u0 (- x 1) y z) (v0 (- x 1) y z)))))
(define-fun
  w0
  ((x Int)) Int (u0 x 1 x))
(define-fun
  f2
  ((x Int) (y Int)) Int (* (v3 x y) x))
(define-funs-rec
  ((u2
    ((x Int) (y Int) (z Int)) Int)
   (v2
    ((x Int) (y Int) (z Int)) Int))
  ((ite (<= x 0) y (f2 (u2 (- x 1) y z) (v2 (- x 1) y z)))
   (ite (<= x 0) z (g2 (u2 (- x 1) y z) (v2 (- x 1) y z)))))
(define-fun
  w2
  ((x Int)) Int (u2 (h2 x) 1 (j2 x)))
(define-fun
  fast
  ((x Int)) Int (* (w2 x) (v4 x)))
(assert-not
  (forall ((c Int)) (or (not (>= c 0)) (= (w0 c) (fast c)))))
